param U :=
	1	2000000
	2	6000000
	3	900000
	4	1100000
	5	900000
	6	1600000
	7	300000
	8	2500000
	9	1300000
;
param V :=
	1	0.17
	2	0.5
	3	0.32
	4	0.09
	5	0.2
	6	0.25
	7	0.01
	8	0.4
	9	0.28
;
